609 34 0 700 961
83 596 973 186 917
104 116 650 966 819
859 982 34 238 595
0 880 999 528 404
662 1059 403 755 0
116 715 518 1005 441
1066 667 896 162 79
754 467 798 1074 172
209 392 467 595 518
305 708 1063 400 933
798 973 308 1091 162
914 158 249 1126 674
960 516 100 1142 733
400 1113 934 487 281
520 249 1098 952 776
988 568 1169 674 290
487 303 775 817 1056
540 899 681 1192 197
1126 802 605 883 323
